nApps = 223
nRes = 9
nActs = 460
nNetworks = 6

assignmentToResources = [3,3,3,1,3,2,3,3,3,1,3,2,3,3,3,3,3,2,3,1,2,1,2,2,3,3,2,2,1,2,3,2,2,1,3,3,1,2,1,2,3,1,2,3,3,3,1,2,2,3,1,3,1,1,1,3,1,1,2,3,2,3,1,3,2,2,3,2,3,3,2,3,3,2,1,1,2,1,2,2,2,1,3,3,2,1,2,2,2,2,2,2,2,3,3,1,3,3,3,3,6,6,6,6,6,6,6,4,4,4,4,6,6,6,5,5,5,6,6,6,6,4,6,6,5,6,6,6,6,6,6,6,6,6,6,6,6,5,5,6,6,6,6,4,4,4,4,5,5,5,5,6,6,6,6,6,6,5,5,6,6,6,6,6,6,5,5,5,4,4,4,6,6,5,4,4,4,4,5,5,6,6,6,6,6,6,4,4,4,4,5,5,6,6,6,4,4,4,5,4,4,6,4,4,4,4,4,4,4,4,4,4,4,4,4,4,4,5,5,6,6,6,4,4,4,4,4,5,5,5,6,6,6,6,6,6,6,4,4,5,5,5,5,5,4,4,6,5,5,6,4,6,6,6,5,7,6,8,4,9,6,7,5,7,5,9,4,9,6,7,5,9,6,7,4,9,5,9,4,8,4,9,5,9,6,8,4,9,6,8,4,8,5,9,5,7,6,7,6,8,5,7,4,9,4,8,7,8,8,8,7,8,7,8,9,8,8,8,7,8,7,9,7,8,7,8,7,8,8,7,9,7,8,7,8,8,8,8,7,7,8,8,8,9,9,7,7,8,8,9,9,9,9,9,9,9,9,8,8,8,7,8,8,9,9,7,8,8,8,8,8,7,7,7,8,8,9,7,8,7,9,8,8,8,7,9,8,8,7,8,8,7,9,9,9,8,7,9,7,7,8,8,8,8,9,9,9,7,9,9,8,9,9,9,8,9,9,9,9,9,9,8,8,7,9,7,8,7,9,9,8,9,8,9,7,9,8,7,8,7,7,8,8,9,8,9,9,9,9,7,8,9,8,9,9,8,9,7,8,7];

processingTimes = [152,120,120,128,104,152,152,128,136,136,104,128,104,104,104,88,72,96,160,64,64,160,104,168,152,168,136,136,96,136,104,112,128,64,120,168,72,104,88,120,104,144,112,128,56,112,88,56,104,120,160,144,112,112,112,112,112,136,80,168,128,144,120,128,112,112,64,160,112,120,72,136,136,136,120,72,152,136,88,120,120,104,104,120,120,112,144,136,120,168,128,112,64,128,128,144,160,96,112,112,5,5,4,3,11,8,4,500,3,500,5,4,4,4,4,3,4,3,1000,3,1000,500,3,4,4,3,500,4,4,4,4,4,1000,3,500,3,3,500,3,3,3,5,3,3,4,500,5,4,500,3,3,3,5,5,5,500,3,8,4,8,8,4,4,3,3,1000,3,4,4,3,3,23,3,1000,5,5,4,500,5,5,3,4,4,5,500,5,500,23,23,4,1000,5,13,4,4,3,3,4,4,500,4,1000,3,4,4,500,23,500,3,3,3,4,3,200,4,5,5,5,5,4,500,5,200,3,4,200,4,3,23,23,4,5,4,4,3,4,500,3,500,4,500,3,3,5,4,500,3,3,3,8,13,8,3,4,500,500,500,500,500,500,500,500,500,500,500,500,500,500,500,500,3,3,4,4,4,4,500,500,500,500,500,500,500,500,500,500,3,3,4,4,4,4,3,3,4,4,3,3,5,5,3,3,3,3,7,7,5,5,4,3,11,8,4,500,3,500,5,4,4,4,4,3,4,3,1000,3,1000,500,3,4,4,3,500,4,4,4,4,4,1000,3,500,3,3,500,3,3,3,5,3,3,4,500,5,4,500,3,3,3,5,5,5,500,3,8,4,8,8,4,4,3,3,1000,3,4,4,3,3,23,3,1000,5,5,4,500,5,5,3,4,4,5,500,5,500,23,23,4,1000,5,13,4,4,3,3,4,4,500,4,1000,3,4,4,500,23,500,3,3,3,4,3,200,4,5,5,5,5,4,500,5,200,3,4,200,4,3,23,23,4,5,4,4,3,4,500,3,500,4,500,3,3,5,4,500,3,3,3,8,13,8,3,4];

periods = [20000,10000,5000,100000,20000,10000,10000,20000,100000,10000,20000,100000,10000,10000,20000,100000,20000,100000,10000,20000,100000,10000,10000,100000,10000,20000,100000,20000,10000,100000,10000,20000,10000,10000,10000,50000,5000,20000,20000,10000,10000,10000,20000,100000,20000,10000,20000,20000,10000,100000,20000,20000,50000,100000,20000,10000,2000,10000,10000,10000,10000,20000,2000,2000,20000,20000,20000,10000,20000,20000,50000,20000,10000,20000,1000,20000,100000,10000,100000,20000,10000,100000,20000,10000,1000,100000,100000,20000,10000,20000,50000,2000,20000,100000,100000,10000,50000,10000,20000,20000,20000,20000,20000,10000,5000,5000,5000,100000,100000,100000,100000,20000,20000,20000,10000,10000,10000,10000,10000,20000,100000,10000,20000,20000,100000,10000,10000,10000,10000,20000,20000,20000,20000,20000,20000,20000,20000,100000,100000,10000,10000,10000,10000,10000,10000,10000,10000,10000,100000,100000,100000,10000,10000,10000,10000,20000,20000,100000,20000,10000,10000,10000,10000,10000,10000,20000,20000,10000,10000,10000,10000,50000,50000,20000,20000,20000,20000,20000,10000,10000,10000,10000,10000,10000,10000,10000,10000,10000,10000,10000,20000,20000,10000,10000,10000,20000,20000,20000,20000,20000,20000,20000,50000,50000,50000,100000,100000,100000,100000,100000,100000,20000,2000,2000,10000,10000,10000,10000,10000,10000,20000,20000,2000,2000,2000,2000,2000,20000,10000,10000,20000,20000,10000,10000,10000,10000,10000,1000,10000,100000,100000,100000,100000,20000,100000,100000,20000,100000,20000,100000,10000,10000,10000,20000,100000,100000,100000,100000,100000,100000,100000,100000,100000,100000,100000,100000,100000,100000,100000,100000,10000,10000,10000,10000,10000,10000,20000,20000,20000,20000,50000,50000,50000,50000,50000,50000,20000,20000,20000,20000,20000,20000,20000,20000,20000,20000,20000,20000,20000,20000,2000,2000,2000,2000,1000,1000,20000,20000,20000,10000,5000,5000,5000,100000,100000,100000,100000,20000,20000,20000,10000,10000,10000,10000,10000,20000,100000,10000,20000,20000,100000,10000,10000,10000,10000,20000,20000,20000,20000,20000,20000,20000,20000,100000,100000,10000,10000,10000,10000,10000,10000,10000,10000,10000,100000,100000,100000,10000,10000,10000,10000,20000,20000,100000,20000,10000,10000,10000,10000,10000,10000,20000,20000,10000,10000,10000,10000,50000,50000,20000,20000,20000,20000,20000,10000,10000,10000,10000,10000,10000,10000,10000,10000,10000,10000,10000,20000,20000,10000,10000,10000,20000,20000,20000,20000,20000,20000,20000,50000,50000,50000,100000,100000,100000,100000,100000,100000,20000,2000,2000,10000,10000,10000,10000,10000,10000,20000,20000,2000,2000,2000,2000,2000,20000,10000,10000,20000,20000,10000,10000,10000,10000,10000,1000,10000,100000,100000,100000,100000,20000,100000,100000,20000,100000,20000,100000,10000,10000,10000,20000];

assignmentToClusters = [1,2,3,4,5,6,7,8,9,10,11,12,13,10,14,4,15,4,16,17,4,18,19,12,20,21,22,23,24,12,25,21,26,27,28,29,30,31,32,33,34,35,36,4,37,38,21,39,40,4,41,41,29,42,43,44,45,46,47,48,49,41,50,45,21,51,52,53,54,32,29,55,56,41,57,41,4,10,58,59,60,4,61,62,57,4,12,63,64,41,29,45,32,65,66,67,29,6,68,69,70,71,72,73,74,75,76,77,78,79,80,81,82,83,84,85,86,87,88,89,90,91,92,93,94,95,96,97,98,99,100,101,102,103,104,105,106,107,108,109,110,111,112,113,114,115,116,117,118,119,120,121,122,123,124,125,126,127,128,129,130,131,132,133,134,135,136,137,138,139,140,141,142,143,144,145,146,147,148,149,150,151,152,153,154,155,156,157,158,159,160,161,162,163,164,165,166,167,168,169,170,171,172,173,174,175,176,177,178,179,180,181,182,183,184,185,186,187,188,189,190,191,192,193,194,195,196,197,198,199,200,201,202,203,204,205,206,207,208,209,210,211,212,213,214,215,216,217,218,219,220,221,222,223,4,4,4,4,4,4,4,4,4,4,4,4,4,4,4,4,6,6,10,10,10,10,21,21,21,21,29,29,29,29,29,29,32,32,32,32,41,41,41,41,41,41,41,41,41,41,45,45,45,45,57,57,70,71,72,73,74,75,76,77,78,79,80,81,82,83,84,85,86,87,88,89,90,91,92,93,94,95,96,97,98,99,100,101,102,103,104,105,106,107,108,109,110,111,112,113,114,115,116,117,118,119,120,121,122,123,124,125,126,127,128,129,130,131,132,133,134,135,136,137,138,139,140,141,142,143,144,145,146,147,148,149,150,151,152,153,154,155,156,157,158,159,160,161,162,163,164,165,166,167,168,169,170,171,172,173,174,175,176,177,178,179,180,181,182,183,184,185,186,187,188,189,190,191,192,193,194,195,196,197,198,199,200,201,202,203,204,205,206,207,208,209,210,211,212,213,214,215,216,217,218,219,220,221,222,223];

precedenceAdjList = [[],[],[],[255],[],[],[],[],[],[273],[],[29],[],[275],[],[265],[],[],[],[],[],[],[],[11,86],[],[277],[],[],[],[],[],[64],[],[],[],[281],[],[],[],[],[],[],[],[259],[],[],[],[],[],[267],[],[293],[],[],[],[],[301],[],[],[],[],[],[],[303],[279],[],[],[],[],[287],[],[],[],[299],[],[295,297],[257],[],[],[],[],[269],[],[],[305],[261,263],[],[],[],[291],[285],[],[289],[],[],[],[35,283],[271],[],[],[],[],[],[],[],[],[],[],[],[],[],[],[],[],[],[],[],[],[],[],[],[],[],[],[],[],[],[],[],[],[],[],[],[],[],[],[],[],[],[],[],[],[],[],[],[],[],[],[],[],[],[],[],[],[],[],[],[],[],[],[],[],[],[],[],[],[],[],[],[],[],[],[],[],[],[],[],[],[],[],[],[],[],[],[],[],[],[],[],[],[],[],[],[],[],[],[],[],[],[],[],[],[],[],[],[],[],[],[],[],[],[],[],[],[],[],[],[],[],[],[],[],[],[],[],[],[],[],[],[],[],[],[],[],[],[],[],[],[],[],[],[],[],[],[],[],[],[],[],[],[],[],[],[],[76],[254],[43],[256],[85],[258],[15],[260],[17],[262],[20],[264],[3],[266],[49],[268],[5],[270],[13],[272],[77],[274],[31],[276],[46],[278],[52],[280],[70],[282],[96],[284],[38],[286],[69],[288],[50],[290],[89],[292],[73],[294],[51],[296],[61],[298],[91],[300],[56],[302],[74],[304],[100],[101],[102],[103],[104],[105],[106],[107],[108],[109],[110],[111],[112],[113],[114],[115],[116],[117],[118],[119],[120],[121],[122],[123],[124],[125],[126],[127],[128],[129],[130],[131],[132],[133],[134],[135],[136],[137],[138],[139],[140],[141],[142],[143],[144],[145],[146],[147],[148],[149],[150],[151],[152],[153],[154],[155],[156],[157],[158],[159],[160],[161],[162],[163],[164],[165],[166],[167],[168],[169],[170],[171],[172],[173],[174],[175],[176],[177],[178],[179],[180],[181],[182],[183],[184],[185],[186],[187],[188],[189],[190],[191],[192],[193],[194],[195],[196],[197],[198],[199],[200],[201],[202],[203],[204],[205],[206],[207],[208],[209],[210],[211],[212],[213],[214],[215],[216],[217],[218],[219],[220],[221],[222],[223],[224],[225],[226],[227],[228],[229],[230],[231],[232],[233],[234],[235],[236],[237],[238],[239],[240],[241],[242],[243],[244],[245],[246],[247],[248],[249],[250],[251],[252],[253]];